# Solution for model r10_t9_m3_9
# Finished Task: 9 / 9
# Makespan: 524.0, Total Distance: 139.0, Total Time: 1.9882
# R O S F
0 0 16 0.0 0.0
1 1 -1 13.0 13.0
2 2 -1 0.0 0.0
3 3 15 12.0 12.0
4 4 -1 0.0 0.0
5 5 18 0.0 0.0
6 6 12 2.0 2.0
7 7 11 0.0 0.0
8 8 -1 4.0 4.0
9 9 -1 3.0 3.0
10 0 -1 496.0 524.0
11 7 -1 413.0 439.0
12 6 -1 419.0 439.0
13 3 17 387.0 419.0
14 3 13 214.0 247.0
15 3 14 171.0 195.0
16 0 10 439.0 462.0
17 3 -1 462.0 496.0
18 5 -1 175.0 214.0
